
  32    1
  10

   0   0  12 2 3 4 5 6 7 8 9 10 11 12 18 
   9   8   9 31 30 28 27 25 21 19 17 15 
  10   8   8 29 28 27 26 25 19 15 14 
   2   6   7 31 29 25 19 16 15 14 
   6   9   9 31 30 29 28 27 26 25 22 21 
   7   8   7 30 29 25 24 20 19 14 
   8   7   8 31 29 28 27 26 25 23 21 
   2  10   5 30 27 25 23 13 
   5  10   6 28 26 24 23 22 21 
  10  10   4 26 24 23 14 
   3   4   4 25 24 19 14 
   7  10   4 27 23 22 21 
   2  10   3 24 22 21 
   5   8   2 22 21 
  10  10   2 24 23 
   5   7   2 27 21 
   6  10   2 26 23 
  10   9   2 26 25 
   5  10   1 22 
   9  10   1 21 
   4   9   1 32
   4   6   1 32
   7  10   1 32
   4   6   1 32
   4  10   1 32
   2   3   1 32
   4   6   1 32
   6   4   1 32
   2   4   1 32
   4   9   1 32
   1   9   1 32
   0   0   0 
